(set-info :smt-lib-version 2.6)
(set-logic UF)
(set-info :source |Benchmarks from the paper: "Extending Sledgehammer with SMT Solvers" by Jasmin Blanchette, Sascha Bohme, and Lawrence C. Paulson, CADE 2011.  Translated to SMT2 by Andrew Reynolds and Morgan Deters.|)
(set-info :category "industrial")
(set-info :status sat)
(declare-sort S1 0)
(declare-sort S2 0)
(declare-sort S3 0)
(declare-sort S4 0)
(declare-sort S5 0)
(declare-sort S6 0)
(declare-sort S7 0)
(declare-fun f1 () S1)
(declare-fun f2 () S1)
(declare-fun f3 (S3 S2) S1)
(declare-fun f4 () S3)
(declare-fun f5 (S3 S3) S1)
(declare-fun f6 () S3)
(declare-fun f7 (S4 S3) S3)
(declare-fun f8 (S2) S4)
(declare-fun f9 (S5 S6) S2)
(declare-fun f10 () S5)
(declare-fun f11 () S6)
(declare-fun f12 () S1)
(declare-fun f13 () S1)
(declare-fun f14 (S6) S1)
(declare-fun f15 (S2 S3) S1)
(declare-fun f16 () S1)
(declare-fun f17 (S3) S3)
(assert (not (= f1 f2)))
(assert (forall ((?v0 S2)) (= (= (f3 f4 ?v0) f1) false)))
(assert (not (= (f5 f6 (f7 (f8 (f9 f10 f11)) f6)) f1)))
(assert (= f12 f1))
(assert (= f13 f1))
(assert (= (f14 f11) f1))
(assert (forall ((?v0 S3)) (= (f5 ?v0 f6) f1)))
(assert (forall ((?v0 S3) (?v1 S3) (?v2 S3)) (=> (= (f5 ?v0 ?v1) f1) (=> (= (f5 ?v2 ?v0) f1) (= (f5 ?v2 ?v1) f1)))))
(assert (forall ((?v0 S3) (?v1 S2) (?v2 S3)) (let ((?v_0 (f8 ?v1))) (=> (= (f5 ?v0 (f7 ?v_0 f6)) f1) (=> (= (f5 ?v0 ?v2) f1) (= (f5 ?v0 (f7 ?v_0 ?v2)) f1))))))
(assert (forall ((?v0 S3) (?v1 S2) (?v2 S3)) (let ((?v_0 (f8 ?v1))) (=> (= (f5 ?v0 (f7 ?v_0 ?v2)) f1) (and (= (f5 ?v0 (f7 ?v_0 f6)) f1) (= (f5 ?v0 ?v2) f1))))))
(assert (forall ((?v0 S2) (?v1 S2) (?v2 S3)) (=> (= (f15 ?v0 (f7 (f8 ?v1) ?v2)) f1) (=> (=> (= ?v0 ?v1) false) (=> (=> (= (f15 ?v0 ?v2) f1) false) false)))))
(assert (forall ((?v0 S2) (?v1 S3) (?v2 S2)) (=> (=> (not (= (f15 ?v0 ?v1) f1)) (= ?v0 ?v2)) (= (f15 ?v0 (f7 (f8 ?v2) ?v1)) f1))))
(assert (forall ((?v0 S2)) (=> (= (f15 ?v0 f6) f1) false)))
(assert (= (= f12 f1) (exists ((?v0 S7) (?v1 S7)) (not (= ?v0 ?v1)))))
(assert (=> (= f12 f1) (forall ((?v0 S7)) (=> (forall ((?v1 S7)) (= ?v1 ?v0)) false))))
(assert (forall ((?v0 S2) (?v1 S3)) (not (= f6 (f7 (f8 ?v0) ?v1)))))
(assert (forall ((?v0 S2) (?v1 S3)) (not (= (f7 (f8 ?v0) ?v1) f6))))
(assert (forall ((?v0 S2) (?v1 S2)) (= (= (f15 ?v0 (f7 (f8 ?v1) f6)) f1) (= ?v0 ?v1))))
(assert (forall ((?v0 S2) (?v1 S2) (?v2 S2) (?v3 S2)) (= (= (f7 (f8 ?v0) (f7 (f8 ?v1) f6)) (f7 (f8 ?v2) (f7 (f8 ?v3) f6))) (or (and (= ?v0 ?v2) (= ?v1 ?v3)) (and (= ?v0 ?v3) (= ?v1 ?v2))))))
(assert (forall ((?v0 S2) (?v1 S2)) (=> (= (f15 ?v0 (f7 (f8 ?v1) f6)) f1) (=> (=> (= ?v0 ?v1) false) false))))
(assert (forall ((?v0 S2) (?v1 S2)) (=> (= (f7 (f8 ?v0) f6) (f7 (f8 ?v1) f6)) (= ?v0 ?v1))))
(assert (forall ((?v0 S2)) (= (= (f3 f6 ?v0) f1) (= f16 f1))))
(assert (forall ((?v0 S3) (?v1 S2)) (=> (= ?v0 f6) (not (= (f15 ?v1 ?v0) f1)))))
(assert (forall ((?v0 S3)) (= (= (f17 ?v0) f6) (forall ((?v1 S2)) (not (= (f3 ?v0 ?v1) f1))))))
(assert (forall ((?v0 S2)) (= (= (f15 ?v0 f6) f1) false)))
(assert (forall ((?v0 S3)) (= (= f6 (f17 ?v0)) (forall ((?v1 S2)) (not (= (f3 ?v0 ?v1) f1))))))
(assert (forall ((?v0 S3)) (= (forall ((?v1 S2)) (=> (= (f15 ?v1 f6) f1) (= (f3 ?v0 ?v1) f1))) true)))
(assert (forall ((?v0 S3)) (= (exists ((?v1 S2)) (and (= (f15 ?v1 f6) f1) (= (f3 ?v0 ?v1) f1))) false)))
(assert (forall ((?v0 S3)) (= (exists ((?v1 S2)) (= (f15 ?v1 ?v0) f1)) (not (= ?v0 f6)))))
(assert (forall ((?v0 S3)) (= (forall ((?v1 S2)) (not (= (f15 ?v1 ?v0) f1))) (= ?v0 f6))))
(assert (= f6 (f17 f4)))
(assert (forall ((?v0 S2) (?v1 S3)) (=> (= (f15 ?v0 ?v1) f1) (= (f7 (f8 ?v0) ?v1) ?v1))))
(assert (forall ((?v0 S2) (?v1 S3) (?v2 S2)) (=> (= (f15 ?v0 ?v1) f1) (= (f15 ?v0 (f7 (f8 ?v2) ?v1)) f1))))
(assert (forall ((?v0 S2) (?v1 S3) (?v2 S3)) (let ((?v_0 (f8 ?v0))) (=> (not (= (f15 ?v0 ?v1) f1)) (=> (not (= (f15 ?v0 ?v2) f1)) (= (= (f7 ?v_0 ?v1) (f7 ?v_0 ?v2)) (= ?v1 ?v2)))))))
(assert (forall ((?v0 S2) (?v1 S3) (?v2 S2)) (= (= (f3 (f7 (f8 ?v0) ?v1) ?v2) f1) (or (= ?v0 ?v2) (= (f3 ?v1 ?v2) f1)))))
(assert (forall ((?v0 S2) (?v1 S2) (?v2 S3)) (= (= (f15 ?v0 (f7 (f8 ?v1) ?v2)) f1) (or (= ?v0 ?v1) (= (f15 ?v0 ?v2) f1)))))
(assert (forall ((?v0 S2) (?v1 S2) (?v2 S3)) (let ((?v_1 (f8 ?v0)) (?v_0 (f8 ?v1))) (= (f7 ?v_1 (f7 ?v_0 ?v2)) (f7 ?v_0 (f7 ?v_1 ?v2))))))
(assert (forall ((?v0 S2) (?v1 S3)) (let ((?v_0 (f8 ?v0))) (let ((?v_1 (f7 ?v_0 ?v1))) (= (f7 ?v_0 ?v_1) ?v_1)))))
(check-sat)
(exit)
